Geometry = GenFormat {
3 C
  O H

  1 1  0.00000000000E+00 -0.10000000000E+01  0.00000000000E+00
  2 2  0.00000000000E+00  0.00000000000E+00  0.78306400000E+00
  3 2  0.00000000000E+00  0.00000000000E+00 -0.78306400000E+00
}

Driver = GeometryOptimization {
  Optimizer = Rational {}
  MovedAtoms = 1:-1
  MaxSteps = 100
  OutputPrefix = "geom.out"
  Convergence {GradElem = 1E-4}
}

Hamiltonian = DFTB {
  Scc = Yes
  SlaterKosterFiles {
    O-O = "../recipes/slakos/mio-ext/O-O.skf"
    O-H = "../recipes/slakos/mio-ext/O-H.skf"
    H-O = "../recipes/slakos/mio-ext/H-O.skf"
    H-H = "../recipes/slakos/mio-ext/H-H.skf"
  }
  MaxAngularMomentum {
    O = "p"
    H = "s"
  }
}

Options {}

Analysis {
  CalculateForces = Yes
}

ParserOptions {
  ParserVersion = 12
}
